% ----DATA VARIABLES----

t=8;%number of attributes
k=5;%max length of the support set
n=6;%number of positive instances
m=6;%number of negative instances
c=3;%number of atMostOne Constraints

% ----OMEGAS----

omegap= [| 0, 1, 0, 1, 1, 1, 1, 0|
 1, 0, 0, 1, 0, 1, 1, 0|
 1, 1, 0, 1, 0, 1, 0, 1|
 0, 0, 0, 1, 0, 1, 1, 0|
 1, 1, 1, 1, 0, 0, 0, 0|
 0, 0, 1, 0, 0, 1, 1, 1|];

omegan= [| 0, 1, 1, 1, 0, 0, 1, 1|
 1, 0, 0, 0, 0, 0, 0, 1|
 1, 1, 1, 1, 1, 1, 1, 1|
 1, 1, 1, 1, 1, 1, 0, 0|
 0, 0, 1, 1, 0, 1, 1, 1|
 0, 0, 0, 0, 0, 0, 1, 1|];

% ----CONSTRAINS----

atMostOne=[{6, 1, 7}, {1, 3}, {6, 5, 1}];